(declare-fun temp3366_1 () (_ BitVec 64))
(declare-fun var2166536 () (_ BitVec 64))
(declare-fun temp3366_3 () (_ BitVec 64))
(declare-fun temp3366_2 () (_ BitVec 64))
(declare-fun temp3366_4 () (_ BitVec 64))
(declare-fun var4659636 () (_ BitVec 64))
(declare-fun temp3366_5 () (_ BitVec 64))
(declare-fun var5637942 () (_ BitVec 64))
(declare-fun var5837020 () (_ BitVec 64))
(declare-fun temp3366_6 () (_ BitVec 64))
(declare-fun temp3366_8 () (_ BitVec 64))
(declare-fun temp3366_7 () (_ BitVec 64))
(declare-fun temp3366_9 () (_ BitVec 64))
(declare-fun var7084065 () (_ BitVec 64))
(declare-fun temp3366_10 () (_ BitVec 64))
(declare-fun ARGNAME_input_NAMEEND_DIM () (_ BitVec 64))
(declare-fun var7342059 () (_ BitVec 64))
(declare-fun temp3366_12 () (_ BitVec 64))
(declare-fun temp3366_11 () (_ BitVec 64))
(declare-fun var7408503 () (_ BitVec 64))
(declare-fun temp3366_13 () (_ BitVec 64))
(declare-fun var7342120 () (_ BitVec 64))
(declare-fun temp3366_14 () (_ BitVec 64))
(declare-fun var7342162 () (_ BitVec 64))
(declare-fun temp3366_16 () (_ BitVec 64))
(declare-fun temp3366_15 () (_ BitVec 64))
(declare-fun temp3366_17 () (_ BitVec 64))
(declare-fun var8063992 () (_ BitVec 64))
(declare-fun var7342107 () (_ BitVec 64))
(declare-fun var7342106 () (_ BitVec 64))
(declare-fun temp3366_18 () (_ BitVec 64))
(declare-fun var7342111 () (_ BitVec 64))
(declare-fun temp3366_19 () (_ BitVec 64))
(declare-fun var7342113 () (_ BitVec 64))
(declare-fun temp3366_20 () (_ BitVec 64))
(declare-fun temp3366_21 () (_ BitVec 64))
(declare-fun var8457370 () (_ BitVec 64))
(declare-fun var8849614 () (_ BitVec 64))
(declare-fun temp3366_22 () (_ BitVec 64))
(declare-fun temp3366_23 () (_ BitVec 64))
(declare-fun var8849644 () (_ BitVec 64))
(declare-fun var8849691 () (_ BitVec 64))
(declare-fun var8849612 () (_ BitVec 64))
(declare-fun var7084122 () (_ BitVec 64))
(declare-fun var7084123 () (_ BitVec 64))
(declare-fun temp3366_24 () (_ BitVec 64))
(declare-fun var9179781 () (_ BitVec 64))
(declare-fun var9179785 () (_ BitVec 64))
(declare-fun var9179786 () (_ BitVec 64))
(declare-fun var9310936 () (_ BitVec 64))
(declare-fun var9310937 () (_ BitVec 64))
(assert (= temp3366_1 #x0000000000000005))
(assert (= var2166536 temp3366_1))
(assert (= temp3366_3 #x0000000000000000))
(assert (= temp3366_2 temp3366_3))
(assert (= temp3366_4 #x0000000000000000))
(assert (= var4659636 temp3366_4))
(assert (= temp3366_5 #x0000000000000001))
(assert (= var5637942 temp3366_5))
(assert (= var5837020 var5637942))
(assert (= temp3366_6 #x0000000000000001))
(assert (= var5837020 temp3366_6))
(assert (= temp3366_8 #x0000000000000000))
(assert (= temp3366_7 temp3366_8))
(assert (= temp3366_9 #x0000000000000000))
(assert (= var7084065 temp3366_9))
(assert (= temp3366_10 #x0000000000000001))
(assert (= var7342059 (bvshl ARGNAME_input_NAMEEND_DIM temp3366_10)))
(assert (= temp3366_12 #x0000000000000000))
(assert (= temp3366_11 temp3366_12))
(assert (= var7408503 var7342059))
(assert (= temp3366_13 #x0000000000000000))
(assert (= var7342120 temp3366_13))
(assert (= temp3366_14 #x0000000000000001))
(assert (= var7342162 temp3366_14))
(assert (= temp3366_16 #x0000000000000000))
(assert (= temp3366_15 temp3366_16))
(assert (= temp3366_17 #x0000000000000001))
(assert (= var8063992 temp3366_17))
(assert (= var7342107 var7342162))
(assert (= var7342106 var7342107))
(assert (= temp3366_18 #x0000000000000001))
(assert (= var7342111 (bvand var7342106 temp3366_18)))
(assert (= temp3366_19 #x0000000000000000))
(assert (= var7342113
   (ite (= var7342111 temp3366_19) #x0000000000000001 #x0000000000000000)))
(assert (= temp3366_20 #x0000000000000000))
(assert (= var7342113 temp3366_20))
(assert (= temp3366_21 #x0000000000000000))
(assert (= var8457370 temp3366_21))
(assert (= var8849614 var7084065))
(assert (= temp3366_22 #x0000000000000000))
(assert (= temp3366_23 #x0000000000000002))
(assert (= var8849644 (ite (= var8849614 #x0000000000000001) temp3366_22 temp3366_23)))
(assert (= var8849691 var8849644))
(assert (= var8849612 var8849691))
(assert (= var7084122 var8849612))
(assert (= var7084123 var7084122))
(assert (= temp3366_24 #x0000000000000004))
(assert (= var9179781 temp3366_24))
(assert (= var9179785 var7084123))
(assert (= var9179786 var7084065))
(assert (= var9310936 var9179785))
(assert (= var9310937 var9179786))
(model-add temp3366_1 () (_ BitVec 64) #x0000000000000005)
(model-add var2166536 () (_ BitVec 64) #x0000000000000005)
(model-add temp3366_3 () (_ BitVec 64) #x0000000000000000)
(model-add temp3366_2 () (_ BitVec 64) #x0000000000000000)
(model-add temp3366_4 () (_ BitVec 64) #x0000000000000000)
(model-add var4659636 () (_ BitVec 64) #x0000000000000000)
(model-add temp3366_5 () (_ BitVec 64) #x0000000000000001)
(model-add var5637942 () (_ BitVec 64) #x0000000000000001)
(model-add var5837020 () (_ BitVec 64) #x0000000000000001)
(model-add temp3366_6 () (_ BitVec 64) #x0000000000000001)




